145
100000
32839
31972
21550
37543
12248
3317
27027
23358
62010
61381
31310
11827
68434
10499
43379
13452
55540
70954
56157
40808
37646
54269
20475
49076
42075
26641
14395
60350
35955
24181
12598
39650
60847
11093
13891
38619
38785
37990
73300
50146
73417
55081
24237
2210
68395
23158
70496
45306
17001
8770
51408
1666
16938
26064
51000
12735
28673
52819
18891
7645
18759
54694
62726
39018
31255
12281
26667
37490
4199
4925
54796
5599
56238
9224
66966
60801
25262
26700
15985
25
46412
6027
2339
3887
6809
41286
9645
64376
1483
15594
36265
29479
21400
41940
20815
4503
3171
53420
3664
67277
47181
70364
963
1435
23504
22689
32638
3151
54211
11104
27614
7696
16657
73952
73333
13846
17675
1779
46580
18979
16735
20339
19140
48794
23706
62510
12883
36704
4009
60150
57004
33845
14570
42855
4584
5219
53974
1062
35000
60294
5567
21114
23672
51394
12626
